NAME: papai_noel.tsp
TYPE: TSP
DIMENSION: 162
EDGE_WEIGHT_TYPE: EXPLICIT
EDGE_WEIGHT_FORMAT: UPPER_DIAG_ROW
EDGE_WEIGHT_SECTION
0
1
2
8
9
10
6
7
8
1
2
8
9
10
11
12
13
14
2
8
9
10
11
12
13
14
15
3
9
10
11
12
13
14
15
11
4
10
11
7
13
9
15
16
12
5
11
12
13
14
15
16
17
13
6
12
13
14
15
16
17
18
14
7
13
14
15
16
17
18
19
15
13
14
15
16
17
18
19
20
21
14
15
16
17
18
19
20
21
22
15
16
17
18
19
20
21
22
23
16
17
18
19
20
21
22
23
24
17
13
14
15
21
17
18
19
25
18
19
20
21
22
23
24
25
26
14
20
21
22
23
24
25
26
22
15
16
22
23
19
25
26
22
23
16
17
18
19
20
21
22
23
24
17
18
19
20
21
22
23
24
25
0
1
7
8
9
5
6
7
2
1
7
8
9
10
11
12
13
3
7
8
9
10
11
12
13
14
4
8
9
10
11
12
13
14
10
5
9
10
6
12
8
14
15
11
6
10
11
12
13
14
15
16
12
7
11
12
13
14
15
16
17
13
8
12
13
14
15
16
17
18
14
14
13
14
15
16
17
18
19
20
15
14
15
16
17
18
19
20
21
16
15
16
17
18
19
20
21
22
17
16
17
18
19
20
21
22
23
18
12
13
14
20
16
17
18
24
19
18
19
20
21
22
23
24
25
15
19
20
21
22
23
24
25
21
16
15
21
22
18
24
25
21
22
17
16
17
18
19
20
21
22
23
18
17
18
19
20
21
22
23
24
0
6
7
8
4
5
6
3
2
6
7
8
9
10
11
12
4
8
7
8
9
10
11
12
13
5
9
8
9
10
11
12
13
9
6
10
9
5
11
7
13
14
10
7
11
10
11
12
13
14
15
11
8
12
11
12
13
14
15
16
12
9
13
12
13
14
15
16
17
13
15
14
13
14
15
16
17
18
19
16
15
14
15
16
17
18
19
20
17
16
15
16
17
18
19
20
21
18
17
16
17
18
19
20
21
22
19
13
12
13
19
15
16
17
23
20
19
18
19
20
21
22
23
24
16
20
19
20
21
22
23
24
20
17
16
20
21
17
23
24
20
21
18
17
16
17
18
19
20
21
22
19
18
17
18
19
20
21
22
23
0
1
2
8
9
10
9
8
2
1
2
3
4
10
11
10
4
3
2
3
4
5
6
12
11
10
9
8
9
10
11
12
13
12
11
10
9
10
11
12
13
14
13
12
6
10
11
12
8
14
15
14
13
12
11
12
13
14
15
16
15
14
13
12
13
14
15
16
17
16
10
14
13
14
15
16
12
18
17
11
10
14
15
16
12
13
19
18
12
11
10
11
12
13
14
20
19
13
12
11
12
13
14
15
21
20
19
18
17
18
19
20
21
22
21
15
14
13
14
15
16
17
23
22
16
15
14
15
16
17
18
24
23
22
21
20
21
22
23
24
25
24
23
22
21
22
23
24
25
26
25
24
23
22
23
24
25
26
27
0
1
7
8
9
10
9
3
2
1
2
3
9
10
11
5
4
3
2
3
4
5
11
12
11
10
9
8
9
10
11
12
13
12
11
10
9
10
11
12
13
14
13
7
11
10
11
7
13
14
15
14
13
12
11
12
13
14
15
16
15
14
13
12
13
14
15
16
17
11
15
14
13
14
15
11
17
18
12
11
15
14
15
11
12
18
19
13
12
11
10
11
12
13
19
20
14
13
12
11
12
13
14
20
21
20
19
18
17
18
19
20
21
22
16
15
14
13
14
15
16
22
23
17
16
15
14
15
16
17
23
24
23
22
21
20
21
22
23
24
25
24
23
22
21
22
23
24
25
26
25
24
23
22
23
24
25
26
0
6
7
8
11
10
4
3
2
1
2
8
9
12
6
5
4
3
2
3
4
10
13
12
11
10
9
8
9
10
11
14
13
12
11
10
9
10
11
12
15
14
8
12
11
10
6
12
13
16
15
14
13
12
11
12
13
14
17
16
15
14
13
12
13
14
15
18
12
16
15
14
13
14
10
16
19
13
12
16
15
14
10
11
17
20
14
13
12
11
10
11
12
18
21
15
14
13
12
11
12
13
19
22
21
20
19
18
17
18
19
20
23
17
16
15
14
13
14
15
21
24
18
17
16
15
14
15
16
22
25
24
23
22
21
20
21
22
23
26
25
24
23
22
21
22
23
24
27
26
25
24
23
22
23
24
25
0
1
2
7
6
10
9
8
7
6
7
8
8
12
11
10
9
8
7
8
9
9
13
12
11
10
9
8
9
5
10
14
13
7
11
5
9
10
6
11
15
14
13
12
11
10
11
7
12
16
15
14
13
12
11
12
8
13
17
16
15
14
13
12
13
9
19
18
17
16
15
14
13
14
15
20
19
18
17
16
15
14
15
16
21
20
19
18
17
16
15
16
17
22
21
20
19
18
17
16
17
18
23
17
16
15
19
13
12
13
19
24
23
22
21
20
19
18
19
20
20
24
23
22
21
20
19
20
16
21
20
24
23
17
21
20
16
17
22
21
20
19
18
17
16
17
18
23
22
21
20
19
18
17
18
19
0
1
8
7
11
10
9
8
7
6
7
9
13
12
11
10
9
8
7
8
10
14
13
12
11
10
9
8
4
11
15
14
8
12
6
10
9
5
12
16
15
14
13
12
11
10
6
13
17
16
15
14
13
12
11
7
14
18
17
16
15
14
13
12
8
20
19
18
17
16
15
14
13
14
21
20
19
18
17
16
15
14
15
22
21
20
19
18
17
16
15
16
23
22
21
20
19
18
17
16
17
24
18
17
16
20
14
13
12
18
25
24
23
22
21
20
19
18
19
21
25
24
23
22
21
20
19
15
22
21
25
24
18
22
21
15
16
23
22
21
20
19
18
17
16
17
24
23
22
21
20
19
18
17
18
0
9
8
12
11
10
9
8
7
6
10
14
13
12
11
10
9
8
7
11
15
14
13
12
11
10
9
3
12
16
15
9
13
7
11
10
4
13
17
16
15
14
13
12
11
5
14
18
17
16
15
14
13
12
6
15
19
18
17
16
15
14
13
7
21
20
19
18
17
16
15
14
13
22
21
20
19
18
17
16
15
14
23
22
21
20
19
18
17
16
15
24
23
22
21
20
19
18
17
16
25
19
18
17
21
15
14
13
17
26
25
24
23
22
21
20
19
18
22
26
25
24
23
22
21
20
14
23
22
26
25
19
23
22
16
15
24
23
22
21
20
19
18
17
16
25
24
23
22
21
20
19
18
17
0
1
7
8
9
10
11
12
13
1
7
8
9
10
11
12
13
14
2
8
9
10
11
12
13
14
10
3
9
10
6
12
8
14
15
11
4
10
11
12
13
14
15
16
12
5
11
12
13
14
15
16
17
13
6
12
13
14
15
16
17
18
14
12
13
14
15
16
17
18
19
20
13
14
15
16
17
18
19
20
21
14
15
16
17
18
19
20
21
22
15
16
17
18
19
20
21
22
23
16
12
13
14
20
16
17
18
24
17
18
19
20
21
22
23
24
25
13
19
20
21
22
23
24
25
21
14
15
21
22
18
24
25
21
22
15
16
17
18
19
20
21
22
23
16
17
18
19
20
21
22
23
24
0
6
7
8
9
10
11
12
2
6
7
8
9
10
11
12
13
3
7
8
9
10
11
12
13
9
4
8
9
5
11
7
13
14
10
5
9
10
11
12
13
14
15
11
6
10
11
12
13
14
15
16
12
7
11
12
13
14
15
16
17
13
13
12
13
14
15
16
17
18
19
14
13
14
15
16
17
18
19
20
15
14
15
16
17
18
19
20
21
16
15
16
17
18
19
20
21
22
17
11
12
13
19
15
16
17
23
18
17
18
19
20
21
22
23
24
14
18
19
20
21
22
23
24
20
15
14
20
21
17
23
24
20
21
16
15
16
17
18
19
20
21
22
17
16
17
18
19
20
21
22
23
0
1
2
3
4
10
11
8
2
1
2
3
4
5
6
12
9
8
7
8
9
10
11
12
13
10
9
8
9
10
11
12
13
14
11
10
4
10
11
12
8
14
15
12
11
10
11
12
13
14
15
16
13
12
11
12
13
14
15
16
17
14
8
12
13
14
15
16
12
18
15
9
8
14
15
16
12
13
19
16
10
9
10
11
12
13
14
20
17
11
10
11
12
13
14
15
21
18
17
16
17
18
19
20
21
22
19
13
12
13
14
15
16
17
23
20
14
13
14
15
16
17
18
24
21
20
19
20
21
22
23
24
25
22
21
20
21
22
23
24
25
26
23
22
21
22
23
24
25
26
27
0
1
2
3
9
10
9
3
2
1
2
3
4
5
11
10
9
8
7
8
9
10
11
12
11
10
9
8
9
10
11
12
13
12
11
5
9
10
11
7
13
14
13
12
11
10
11
12
13
14
15
14
13
12
11
12
13
14
15
16
15
9
13
12
13
14
15
11
17
16
10
9
13
14
15
11
12
18
17
11
10
9
10
11
12
13
19
18
12
11
10
11
12
13
14
20
19
18
17
16
17
18
19
20
21
20
14
13
12
13
14
15
16
22
21
15
14
13
14
15
16
17
23
22
21
20
19
20
21
22
23
24
23
22
21
20
21
22
23
24
25
24
23
22
21
22
23
24
25
26
0
1
2
8
9
10
4
3
2
1
2
3
4
10
11
10
9
8
7
8
9
10
11
12
11
10
9
8
9
10
11
12
13
12
6
10
9
10
6
12
13
14
13
12
11
10
11
12
13
14
15
14
13
12
11
12
13
14
15
16
10
14
13
12
13
14
10
16
17
11
10
14
13
14
10
11
17
18
12
11
10
9
10
11
12
18
19
13
12
11
10
11
12
13
19
20
19
18
17
16
17
18
19
20
21
15
14
13
12
13
14
15
21
22
16
15
14
13
14
15
16
22
23
22
21
20
19
20
21
22
23
24
23
22
21
20
21
22
23
24
25
24
23
22
21
22
23
24
25
0
1
7
8
11
5
4
3
2
1
2
3
9
12
11
10
9
8
7
8
9
10
13
12
11
10
9
8
9
10
11
14
13
7
11
10
9
5
11
12
15
14
13
12
11
10
11
12
13
16
15
14
13
12
11
12
13
14
17
11
15
14
13
12
13
9
15
18
12
11
15
14
13
9
10
16
19
13
12
11
10
9
10
11
17
20
14
13
12
11
10
11
12
18
21
20
19
18
17
16
17
18
19
22
16
15
14
13
12
13
14
20
23
17
16
15
14
13
14
15
21
24
23
22
21
20
19
20
21
22
25
24
23
22
21
20
21
22
23
26
25
24
23
22
21
22
23
24
0
6
7
12
6
5
4
3
2
1
2
8
13
12
11
10
9
8
7
8
9
14
13
12
11
10
9
8
9
10
15
14
8
12
11
10
4
10
11
16
15
14
13
12
11
10
11
12
17
16
15
14
13
12
11
12
13
18
12
16
15
14
13
12
8
14
19
13
12
16
15
14
8
9
15
20
14
13
12
11
10
9
10
16
21
15
14
13
12
11
10
11
17
22
21
20
19
18
17
16
17
18
23
17
16
15
14
13
12
13
19
24
18
17
16
15
14
13
14
20
25
24
23
22
21
20
19
20
21
26
25
24
23
22
21
20
21
22
27
26
25
24
23
22
21
22
23
0
1
13
12
11
10
9
8
7
6
2
14
13
7
11
10
9
8
2
8
15
9
13
12
11
10
9
3
9
16
10
14
13
12
11
10
4
10
17
11
15
9
8
7
11
5
11
18
12
11
10
14
8
7
6
12
19
18
12
11
10
9
8
12
13
20
19
18
12
11
10
14
13
14
21
20
19
18
17
16
15
14
15
22
21
20
19
18
17
16
15
16
18
22
21
20
19
18
17
16
12
19
23
22
21
20
19
18
17
13
25
24
23
22
21
20
19
18
19
26
25
24
23
22
21
20
19
20
27
26
25
24
23
22
21
20
21
28
27
26
25
24
23
22
21
22
0
14
13
12
11
10
9
8
7
1
15
14
8
12
11
10
9
3
7
16
10
14
13
12
11
10
4
8
17
11
15
14
13
12
11
5
9
18
12
16
10
9
8
12
6
10
19
13
12
11
15
9
8
7
11
20
19
13
12
11
10
9
13
12
21
20
19
13
12
11
15
14
13
22
21
20
19
18
17
16
15
14
23
22
21
20
19
18
17
16
15
19
23
22
21
20
19
18
17
11
20
24
23
22
21
20
19
18
12
26
25
24
23
22
21
20
19
18
27
26
25
24
23
22
21
20
19
28
27
26
25
24
23
22
21
20
29
28
27
26
25
24
23
22
21
0
6
7
8
9
10
11
12
13
1
7
8
9
10
11
12
13
9
2
8
9
5
11
7
13
14
10
3
9
10
11
12
13
14
15
11
4
10
11
12
13
14
15
16
12
5
11
12
13
14
15
16
17
13
11
12
13
14
15
16
17
18
19
12
13
14
15
16
17
18
19
20
13
14
15
16
17
18
19
20
21
14
15
16
17
18
19
20
21
22
15
11
12
13
19
15
16
17
23
16
17
18
19
20
21
22
23
24
12
18
19
20
21
22
23
24
20
13
14
20
21
17
23
24
20
21
14
15
16
17
18
19
20
21
22
15
16
17
18
19
20
21
22
23
0
1
2
3
4
5
6
12
7
6
7
8
9
10
11
12
13
8
7
8
9
10
11
12
13
14
9
8
4
10
11
12
8
14
15
10
9
10
11
12
13
14
15
16
11
10
11
12
13
14
15
16
17
12
6
12
13
14
15
16
12
18
13
7
8
14
15
16
12
13
19
14
8
9
10
11
12
13
14
20
15
9
10
11
12
13
14
15
21
16
15
16
17
18
19
20
21
22
17
11
12
13
14
15
16
17
23
18
12
13
14
15
16
17
18
24
19
18
19
20
21
22
23
24
25
20
19
20
21
22
23
24
25
26
21
20
21
22
23
24
25
26
27
0
1
2
3
4
5
11
8
7
6
7
8
9
10
11
12
9
8
7
8
9
10
11
12
13
10
9
3
9
10
11
7
13
14
11
10
9
10
11
12
13
14
15
12
11
10
11
12
13
14
15
16
13
7
11
12
13
14
15
11
17
14
8
7
13
14
15
11
12
18
15
9
8
9
10
11
12
13
19
16
10
9
10
11
12
13
14
20
17
16
15
16
17
18
19
20
21
18
12
11
12
13
14
15
16
22
19
13
12
13
14
15
16
17
23
20
19
18
19
20
21
22
23
24
21
20
19
20
21
22
23
24
25
22
21
20
21
22
23
24
25
26
0
1
2
3
4
10
9
8
7
6
7
8
9
10
11
10
9
8
7
8
9
10
11
12
11
10
4
8
9
10
6
12
13
12
11
10
9
10
11
12
13
14
13
12
11
10
11
12
13
14
15
14
8
12
11
12
13
14
10
16
15
9
8
12
13
14
10
11
17
16
10
9
8
9
10
11
12
18
17
11
10
9
10
11
12
13
19
18
17
16
15
16
17
18
19
20
19
13
12
11
12
13
14
15
21
20
14
13
12
13
14
15
16
22
21
20
19
18
19
20
21
22
23
22
21
20
19
20
21
22
23
24
23
22
21
20
21
22
23
24
25
0
1
2
3
9
10
9
8
7
6
7
8
9
10
11
10
9
8
7
8
9
10
11
12
11
5
9
8
9
5
11
12
13
12
11
10
9
10
11
12
13
14
13
12
11
10
11
12
13
14
15
9
13
12
11
12
13
9
15
16
10
9
13
12
13
9
10
16
17
11
10
9
8
9
10
11
17
18
12
11
10
9
10
11
12
18
19
18
17
16
15
16
17
18
19
20
14
13
12
11
12
13
14
20
21
15
14
13
12
13
14
15
21
22
21
20
19
18
19
20
21
22
23
22
21
20
19
20
21
22
23
24
23
22
21
20
21
22
23
24
0
1
2
8
11
10
9
8
7
6
7
8
9
12
11
10
9
8
7
8
9
10
13
12
6
10
9
8
4
10
11
14
13
12
11
10
9
10
11
12
15
14
13
12
11
10
11
12
13
16
10
14
13
12
11
12
8
14
17
11
10
14
13
12
8
9
15
18
12
11
10
9
8
9
10
16
19
13
12
11
10
9
10
11
17
20
19
18
17
16
15
16
17
18
21
15
14
13
12
11
12
13
19
22
16
15
14
13
12
13
14
20
23
22
21
20
19
18
19
20
21
24
23
22
21
20
19
20
21
22
25
24
23
22
21
20
21
22
23
0
1
7
12
11
10
9
8
7
6
7
8
13
12
11
10
9
8
7
8
9
14
13
7
11
10
9
3
9
10
15
14
13
12
11
10
9
10
11
16
15
14
13
12
11
10
11
12
17
11
15
14
13
12
11
7
13
18
12
11
15
14
13
7
8
14
19
13
12
11
10
9
8
9
15
20
14
13
12
11
10
9
10
16
21
20
19
18
17
16
15
16
17
22
16
15
14
13
12
11
12
18
23
17
16
15
14
13
12
13
19
24
23
22
21
20
19
18
19
20
25
24
23
22
21
20
19
20
21
26
25
24
23
22
21
20
21
22
0
6
13
12
11
10
9
8
7
6
7
14
13
12
11
10
9
8
7
8
15
14
8
12
11
10
4
8
9
16
15
14
13
12
11
10
9
10
17
16
15
14
13
12
11
10
11
18
12
16
15
14
13
12
6
12
19
13
12
16
15
14
8
7
13
20
14
13
12
11
10
9
8
14
21
15
14
13
12
11
10
9
15
22
21
20
19
18
17
16
15
16
23
17
16
15
14
13
12
11
17
24
18
17
16
15
14
13
12
18
25
24
23
22
21
20
19
18
19
26
25
24
23
22
21
20
19
20
27
26
25
24
23
22
21
20
21
0
14
13
7
11
10
9
8
2
6
15
9
13
12
11
10
9
3
7
16
10
14
13
12
11
10
4
8
17
11
15
9
8
7
11
5
9
18
12
11
10
14
8
7
6
10
19
18
12
11
10
9
8
12
11
20
19
18
12
11
10
14
13
12
21
20
19
18
17
16
15
14
13
22
21
20
19
18
17
16
15
14
18
22
21
20
19
18
17
16
10
19
23
22
21
20
19
18
17
11
25
24
23
22
21
20
19
18
17
26
25
24
23
22
21
20
19
18
27
26
25
24
23
22
21
20
19
28
27
26
25
24
23
22
21
20
0
6
7
8
9
10
11
12
8
1
7
8
4
10
6
12
13
9
2
8
9
10
11
12
13
14
10
3
9
10
11
12
13
14
15
11
4
10
11
12
13
14
15
16
12
10
11
12
13
14
15
16
17
18
11
12
13
14
15
16
17
18
19
12
13
14
15
16
17
18
19
20
13
14
15
16
17
18
19
20
21
14
10
11
12
18
14
15
16
22
15
16
17
18
19
20
21
22
23
11
17
18
19
20
21
22
23
19
12
13
19
20
16
22
23
19
20
13
14
15
16
17
18
19
20
21
14
15
16
17
18
19
20
21
22
0
6
2
3
4
5
11
12
7
6
7
8
9
10
11
12
13
8
7
8
9
10
11
12
13
14
9
8
9
10
11
12
13
14
15
10
9
10
11
12
13
14
15
16
11
10
11
12
13
14
15
16
17
12
11
12
13
14
15
16
17
18
13
12
13
14
15
16
17
18
19
14
13
14
15
16
17
18
19
20
15
14
15
16
17
18
19
20
21
16
15
16
17
18
19
20
21
22
17
16
17
18
19
20
21
22
23
18
17
18
19
20
21
22
23
24
19
18
19
20
21
22
23
24
25
20
19
20
21
22
23
24
25
26
0
6
7
8
9
5
11
8
2
6
7
8
9
10
6
12
9
3
7
8
9
10
11
7
13
10
4
8
4
5
6
12
8
14
11
5
4
5
11
7
8
9
15
12
11
5
6
7
8
9
15
16
13
12
11
7
8
9
15
16
17
14
13
12
13
14
15
16
17
18
15
14
13
14
15
16
17
18
19
11
15
14
15
16
17
18
19
15
12
16
15
16
17
18
19
20
16
18
17
16
17
18
19
20
21
22
19
18
17
18
19
20
21
22
23
20
19
18
19
20
21
22
23
24
21
20
19
20
21
22
23
24
25
0
1
2
3
9
10
9
8
7
6
7
8
9
10
11
10
9
8
7
8
9
10
11
12
11
10
9
8
9
10
11
12
13
12
11
10
9
10
11
12
13
14
13
12
11
10
11
12
13
14
15
14
13
12
11
12
13
14
15
16
15
14
13
12
13
14
15
16
17
16
15
14
13
14
15
16
17
18
17
16
15
14
15
16
17
18
19
18
17
16
15
16
17
18
19
20
19
18
17
16
17
18
19
20
21
20
19
18
17
18
19
20
21
22
21
20
19
18
19
20
21
22
23
22
21
20
19
20
21
22
23
24
0
1
2
8
9
10
9
8
7
6
7
8
9
10
11
10
9
8
7
8
9
10
11
12
11
10
9
8
9
10
11
12
13
12
11
10
9
10
11
12
13
14
13
12
11
10
11
12
13
14
15
14
13
12
11
12
13
14
15
16
15
14
13
12
13
14
15
16
17
16
15
14
13
14
15
16
17
18
17
16
15
14
15
16
17
18
19
18
17
16
15
16
17
18
19
20
19
18
17
16
17
18
19
20
21
20
19
18
17
18
19
20
21
22
21
20
19
18
19
20
21
22
23
22
21
20
19
20
21
22
23
0
1
7
8
11
10
9
8
7
6
7
8
9
12
11
10
9
8
7
8
9
10
13
12
11
10
9
8
9
10
11
14
13
12
11
10
9
10
11
12
15
14
13
12
11
10
11
12
13
16
15
14
13
12
11
12
13
14
17
16
15
14
13
12
13
14
15
18
17
16
15
14
13
14
15
16
19
18
17
16
15
14
15
16
17
20
19
18
17
16
15
16
17
18
21
20
19
18
17
16
17
18
19
22
21
20
19
18
17
18
19
20
23
22
21
20
19
18
19
20
21
24
23
22
21
20
19
20
21
22
0
6
7
12
11
10
9
8
7
6
7
8
13
12
11
10
9
8
7
8
9
14
13
12
11
10
9
8
9
10
15
14
13
12
11
10
9
10
11
16
15
14
13
12
11
10
11
12
17
16
15
14
13
12
11
12
13
18
17
16
15
14
13
12
13
14
19
18
17
16
15
14
13
14
15
20
19
18
17
16
15
14
15
16
21
20
19
18
17
16
15
16
17
22
21
20
19
18
17
16
17
18
23
22
21
20
19
18
17
18
19
24
23
22
21
20
19
18
19
20
25
24
23
22
21
20
19
20
21
0
6
13
7
11
10
9
8
7
1
7
14
8
12
11
10
9
8
2
8
15
9
13
7
6
5
9
3
9
16
10
9
8
12
6
5
4
10
17
16
10
9
8
7
6
10
11
18
17
16
10
9
8
12
11
12
19
18
17
16
15
14
13
12
13
20
19
18
17
16
15
14
13
14
16
20
19
18
17
16
15
14
10
17
21
20
19
18
17
16
15
11
23
22
21
20
19
18
17
16
17
24
23
22
21
20
19
18
17
18
25
24
23
22
21
20
19
18
19
26
25
24
23
22
21
20
19
20
0
9
13
12
6
10
4
8
7
1
10
14
13
12
11
10
9
8
2
11
15
14
13
12
11
10
9
3
12
16
15
14
13
12
11
10
4
18
17
16
15
14
13
12
11
10
19
18
17
16
15
14
13
12
11
20
19
18
17
16
15
14
13
12
21
20
19
18
17
16
15
14
13
22
16
15
14
18
12
11
10
14
23
22
21
20
19
18
17
16
15
19
23
22
21
20
19
18
17
11
20
19
23
22
16
20
19
13
12
21
20
19
18
17
16
15
14
13
22
21
20
19
18
17
16
15
14
0
6
7
3
9
5
11
12
8
1
7
8
9
10
11
12
13
9
2
8
9
10
11
12
13
14
10
3
9
10
11
12
13
14
15
11
9
10
11
12
13
14
15
16
17
10
11
12
13
14
15
16
17
18
11
12
13
14
15
16
17
18
19
12
13
14
15
16
17
18
19
20
13
9
10
11
17
13
14
15
21
14
15
16
17
18
19
20
21
22
10
16
17
18
19
20
21
22
18
11
12
18
19
15
21
22
18
19
12
13
14
15
16
17
18
19
20
13
14
15
16
17
18
19
20
21
0
6
7
8
9
10
6
12
7
1
7
8
9
10
11
7
13
8
2
8
4
5
6
12
8
14
9
3
4
5
11
7
8
9
15
10
9
5
6
7
8
9
15
16
11
10
11
7
8
9
15
16
17
12
11
12
13
14
15
16
17
18
13
12
13
14
15
16
17
18
19
9
13
14
15
16
17
18
19
15
10
14
15
16
17
18
19
20
16
16
15
16
17
18
19
20
21
22
17
16
17
18
19
20
21
22
23
18
17
18
19
20
21
22
23
24
19
18
19
20
21
22
23
24
25
0
6
2
8
4
10
11
8
7
6
2
8
4
10
11
12
9
8
2
8
9
10
11
12
13
10
9
8
9
10
11
12
13
14
11
10
9
10
11
12
13
14
15
12
11
10
11
12
13
14
15
16
13
12
11
12
13
14
15
16
17
14
13
12
13
14
15
16
17
18
15
14
13
14
15
16
17
18
19
16
15
14
15
16
17
18
19
20
17
16
15
16
17
18
19
20
21
18
17
16
17
18
19
20
21
22
19
18
17
18
19
20
21
22
23
20
19
18
19
20
21
22
23
24
0
6
2
8
9
5
4
8
7
6
7
8
9
10
6
5
9
8
7
8
9
10
11
7
6
10
9
8
9
10
11
12
8
12
11
10
9
10
11
12
13
14
13
12
11
10
11
12
13
14
15
14
13
12
11
12
13
14
15
16
15
14
13
12
13
14
15
16
17
16
10
9
8
14
10
11
12
18
17
16
15
14
15
16
17
18
19
13
17
16
15
16
17
18
19
15
14
13
17
16
12
18
19
15
16
15
14
13
12
13
14
15
16
17
16
15
14
13
14
15
16
17
18
0
6
2
8
9
10
9
8
2
6
2
8
9
10
11
10
4
8
7
8
9
10
11
12
11
10
9
8
9
10
11
12
13
12
11
10
9
10
11
12
13
14
13
12
11
10
11
12
13
14
15
14
13
12
11
12
13
14
15
16
15
14
13
12
13
14
15
16
17
16
15
14
13
14
15
16
17
18
17
16
15
14
15
16
17
18
19
18
17
16
15
16
17
18
19
20
19
18
17
16
17
18
19
20
21
20
19
18
17
18
19
20
21
22
21
20
19
18
19
20
21
22
0
6
7
3
6
10
9
8
7
6
7
8
4
7
11
10
9
8
7
8
9
5
8
12
11
10
9
8
9
10
6
14
13
12
11
10
9
10
11
12
15
14
13
12
11
10
11
12
13
16
15
14
13
12
11
12
13
14
17
16
15
14
13
12
13
14
15
18
12
11
10
14
8
9
10
16
19
18
17
16
15
14
15
16
17
15
19
18
17
16
15
16
17
13
16
15
19
18
12
16
17
13
14
17
16
15
14
13
12
13
14
15
18
17
16
15
14
13
14
15
16
0
6
7
12
11
10
4
8
2
6
7
8
13
12
6
10
9
8
7
8
9
14
13
12
11
10
9
8
9
10
15
14
13
12
11
10
9
10
11
16
15
14
13
12
11
10
11
12
17
16
15
14
13
12
11
12
13
18
17
16
15
14
13
12
13
14
19
18
17
16
15
14
13
14
15
20
19
18
17
16
15
14
15
16
21
20
19
18
17
16
15
16
17
22
21
20
19
18
17
16
17
18
23
22
21
20
19
18
17
18
19
24
23
22
21
20
19
18
19
20
0
6
13
7
11
10
9
8
7
1
7
14
8
12
6
5
4
8
2
8
15
9
8
7
11
5
4
3
9
16
15
9
8
7
6
5
9
10
17
16
15
9
8
7
11
10
11
18
17
16
15
14
13
12
11
12
19
18
17
16
15
14
13
12
13
15
19
18
17
16
15
14
13
9
16
20
19
18
17
16
15
14
10
22
21
20
19
18
17
16
15
16
23
22
21
20
19
18
17
16
17
24
23
22
21
20
19
18
17
18
25
24
23
22
21
20
19
18
19
0
9
13
12
11
10
9
8
7
1
10
14
13
12
11
10
9
8
2
11
15
14
13
12
11
10
9
3
17
16
15
14
13
12
11
10
9
18
17
16
15
14
13
12
11
10
19
18
17
16
15
14
13
12
11
20
19
18
17
16
15
14
13
12
21
15
14
13
17
11
10
9
13
22
21
20
19
18
17
16
15
14
18
22
21
20
19
18
17
16
10
19
18
22
21
15
19
18
12
11
20
19
18
17
16
15
14
13
12
21
20
19
18
17
16
15
14
13
0
6
7
8
9
10
11
12
8
1
7
8
9
10
11
12
13
9
2
8
9
10
11
12
13
14
10
8
9
10
11
12
13
14
15
16
9
10
11
12
13
14
15
16
17
10
11
12
13
14
15
16
17
18
11
12
13
14
15
16
17
18
19
12
8
9
10
16
12
13
14
20
13
14
15
16
17
18
19
20
21
9
15
16
17
18
19
20
21
17
10
11
17
18
14
20
21
17
18
11
12
13
14
15
16
17
18
19
12
13
14
15
16
17
18
19
20
0
6
7
8
9
10
6
12
7
1
7
3
4
5
11
7
13
8
2
3
4
10
6
7
8
14
9
8
4
5
6
7
8
14
15
10
9
10
6
7
8
14
15
16
11
10
11
12
13
14
15
16
17
12
11
12
13
14
15
16
17
18
8
12
13
14
15
16
17
18
14
9
13
14
15
16
17
18
19
15
15
14
15
16
17
18
19
20
21
16
15
16
17
18
19
20
21
22
17
16
17
18
19
20
21
22
23
18
17
18
19
20
21
22
23
24
0
6
7
8
4
10
11
8
7
6
7
8
9
10
11
12
9
8
7
8
9
10
11
12
13
10
4
8
9
10
11
12
8
14
11
5
4
10
11
12
8
9
15
12
6
5
6
7
8
9
10
16
13
7
6
7
8
9
10
11
17
14
13
12
13
14
15
16
17
18
15
9
8
9
10
11
12
13
19
16
10
9
10
11
12
13
14
20
17
16
15
16
17
18
19
20
21
18
17
16
17
18
19
20
21
22
19
18
17
18
19
20
21
22
23
0
6
2
8
9
10
9
8
2
6
7
8
9
10
11
10
9
8
7
8
9
10
11
12
11
10
9
8
9
10
11
12
13
12
11
10
9
10
11
12
13
14
13
12
11
10
11
12
13
14
15
14
13
12
11
12
13
14
15
16
15
14
13
12
13
14
15
16
17
16
15
14
13
14
15
16
17
18
17
16
15
14
15
16
17
18
19
18
17
16
15
16
17
18
19
20
19
18
17
16
17
18
19
20
21
20
19
18
17
18
19
20
21
22
0
6
7
8
9
10
9
8
7
6
7
8
9
10
11
10
9
8
2
8
9
10
11
7
11
10
9
8
9
10
11
7
8
12
11
10
9
10
11
12
8
9
13
12
11
10
11
12
13
9
10
14
13
12
11
12
13
14
10
16
15
14
13
12
13
14
15
16
17
16
15
14
13
14
15
16
17
18
17
16
15
14
15
16
17
18
19
18
12
11
15
11
12
18
19
20
19
18
17
16
17
18
19
20
21
20
19
18
17
18
19
20
21
0
6
7
8
11
10
4
8
7
6
7
8
9
12
11
10
9
8
7
8
9
10
13
12
11
10
9
8
9
10
11
14
13
12
11
10
9
10
11
12
15
14
13
12
11
10
11
12
13
16
15
14
13
12
11
12
13
14
17
16
15
14
13
12
13
14
15
18
17
16
15
14
13
14
15
16
19
18
17
16
15
14
15
16
17
20
19
18
17
16
15
16
17
18
21
20
19
18
17
16
17
18
19
22
21
20
19
18
17
18
19
20
0
6
7
12
11
10
9
8
7
6
7
8
13
12
11
10
9
8
7
8
9
14
8
12
11
10
9
8
4
10
15
9
8
12
11
10
4
5
11
16
10
9
8
7
6
5
6
12
17
11
10
9
8
7
6
7
13
18
17
16
15
14
13
12
13
14
19
13
12
11
10
9
8
9
15
20
14
13
12
11
10
9
10
16
21
20
19
18
17
16
15
16
17
22
21
20
19
18
17
16
17
18
23
22
21
20
19
18
17
18
19
0
6
13
7
11
5
4
3
7
1
7
14
8
7
6
10
4
3
2
8
15
14
8
7
6
5
4
8
9
16
15
14
8
7
6
10
9
10
17
16
15
14
13
12
11
10
11
18
17
16
15
14
13
12
11
12
14
18
17
16
15
14
13
12
8
15
19
18
17
16
15
14
13
9
21
20
19
18
17
16
15
14
15
22
21
20
19
18
17
16
15
16
23
22
21
20
19
18
17
16
17
24
23
22
21
20
19
18
17
18
0
9
13
12
11
10
9
8
7
1
10
14
13
12
11
10
9
8
2
16
15
14
13
12
11
10
9
8
17
16
15
14
13
12
11
10
9
18
17
16
15
14
13
12
11
10
19
18
17
16
15
14
13
12
11
20
14
13
12
16
10
9
8
12
21
20
19
18
17
16
15
14
13
17
21
20
19
18
17
16
15
9
18
17
21
20
14
18
17
11
10
19
18
17
16
15
14
13
12
11
20
19
18
17
16
15
14
13
12
0
6
7
8
9
10
11
12
8
1
7
8
9
10
11
12
13
9
7
8
9
10
11
12
13
14
15
8
9
10
11
12
13
14
15
16
9
10
11
12
13
14
15
16
17
10
11
12
13
14
15
16
17
18
11
7
8
9
15
11
12
13
19
12
13
14
15
16
17
18
19
20
8
14
15
16
17
18
19
20
16
9
10
16
17
13
19
20
16
17
10
11
12
13
14
15
16
17
18
11
12
13
14
15
16
17
18
19
0
6
2
3
4
10
6
12
7
1
2
3
9
5
6
7
13
8
7
3
4
5
6
7
13
14
9
8
9
5
6
7
13
14
15
10
9
10
11
12
13
14
15
16
11
10
11
12
13
14
15
16
17
7
11
12
13
14
15
16
17
13
8
12
13
14
15
16
17
18
14
14
13
14
15
16
17
18
19
20
15
14
15
16
17
18
19
20
21
16
15
16
17
18
19
20
21
22
17
16
17
18
19
20
21
22
23
0
6
7
8
9
10
11
8
7
6
7
8
9
10
11
12
9
8
7
8
9
10
11
12
13
10
9
8
9
10
11
12
13
14
11
10
9
10
11
12
13
14
15
12
11
10
11
12
13
14
15
16
13
12
11
12
13
14
15
16
17
14
13
12
13
14
15
16
17
18
15
14
13
14
15
16
17
18
19
16
15
14
15
16
17
18
19
20
17
16
15
16
17
18
19
20
21
18
17
16
17
18
19
20
21
22
0
1
2
8
4
10
9
3
2
1
7
3
4
5
11
10
9
3
2
3
4
5
11
12
11
10
9
3
4
5
11
12
13
12
11
10
9
10
11
12
13
14
13
12
11
10
11
12
13
14
15
9
13
12
11
12
13
14
15
11
10
14
13
12
13
14
15
16
12
16
15
14
13
14
15
16
17
18
17
16
15
14
15
16
17
18
19
18
17
16
15
16
17
18
19
20
19
18
17
16
17
18
19
20
21
0
1
7
3
9
10
4
3
2
6
2
3
4
10
11
10
4
3
2
3
4
10
11
12
11
10
4
3
4
10
11
12
13
12
11
10
9
10
11
12
13
14
13
12
11
10
11
12
13
14
10
14
13
12
11
12
13
14
10
11
15
14
13
12
13
14
15
11
17
16
15
14
13
14
15
16
17
18
17
16
15
14
15
16
17
18
19
18
17
16
15
16
17
18
19
20
19
18
17
16
17
18
19
20
0
6
2
8
11
5
4
3
7
1
2
3
9
12
11
5
4
3
2
3
9
10
13
12
11
5
4
3
9
10
11
14
13
12
11
10
9
10
11
12
15
14
13
12
11
10
11
12
13
11
15
14
13
12
11
12
13
9
12
16
15
14
13
12
13
14
10
18
17
16
15
14
13
14
15
16
19
18
17
16
15
14
15
16
17
20
19
18
17
16
15
16
17
18
21
20
19
18
17
16
17
18
19
0
6
7
12
11
10
9
8
7
6
7
8
13
12
11
10
9
8
7
8
9
14
13
12
11
10
9
8
9
10
15
14
13
12
11
10
9
10
11
16
15
14
13
12
11
10
11
12
17
16
15
14
13
12
11
12
13
18
17
16
15
14
13
12
13
14
19
18
17
16
15
14
13
14
15
20
19
18
17
16
15
14
15
16
21
20
19
18
17
16
15
16
17
22
21
20
19
18
17
16
17
18
0
6
13
7
6
5
9
3
2
1
7
14
13
7
6
5
4
3
7
8
15
14
13
7
6
5
9
8
9
16
15
14
13
12
11
10
9
10
17
16
15
14
13
12
11
10
11
13
17
16
15
14
13
12
11
7
14
18
17
16
15
14
13
12
8
20
19
18
17
16
15
14
13
14
21
20
19
18
17
16
15
14
15
22
21
20
19
18
17
16
15
16
23
22
21
20
19
18
17
16
17
0
9
13
12
11
10
9
8
7
1
15
14
13
12
11
10
9
8
7
16
15
14
13
12
11
10
9
8
17
16
15
14
13
12
11
10
9
18
17
16
15
14
13
12
11
10
19
13
12
11
15
9
8
7
11
20
19
18
17
16
15
14
13
12
16
20
19
18
17
16
15
14
8
17
16
20
19
13
17
16
10
9
18
17
16
15
14
13
12
11
10
19
18
17
16
15
14
13
12
11
0
6
7
8
9
10
11
12
8
6
7
8
9
10
11
12
13
14
7
8
9
10
11
12
13
14
15
8
9
10
11
12
13
14
15
16
9
10
11
12
13
14
15
16
17
10
6
7
8
14
10
11
12
18
11
12
13
14
15
16
17
18
19
7
13
14
15
16
17
18
19
15
8
9
15
16
12
18
19
15
16
9
10
11
12
13
14
15
16
17
10
11
12
13
14
15
16
17
18
0
1
2
8
4
5
6
12
7
6
2
3
4
5
6
12
13
8
7
8
4
5
6
12
13
14
9
8
9
10
11
12
13
14
15
10
9
10
11
12
13
14
15
16
6
10
11
12
13
14
15
16
12
7
11
12
13
14
15
16
17
13
13
12
13
14
15
16
17
18
19
14
13
14
15
16
17
18
19
20
15
14
15
16
17
18
19
20
21
16
15
16
17
18
19
20
21
22
0
1
7
3
4
5
11
8
7
1
2
3
4
5
11
12
9
8
7
3
4
5
11
12
13
10
9
8
9
10
11
12
13
14
11
10
9
10
11
12
13
14
15
7
11
10
11
12
13
14
15
11
8
12
11
12
13
14
15
16
12
14
13
12
13
14
15
16
17
18
15
14
13
14
15
16
17
18
19
16
15
14
15
16
17
18
19
20
17
16
15
16
17
18
19
20
21
0
6
2
3
4
10
9
8
2
1
2
3
4
10
11
10
9
8
2
3
4
10
11
12
11
10
9
8
9
10
11
12
13
12
11
10
9
10
11
12
13
14
8
12
11
10
11
12
13
14
10
9
13
12
11
12
13
14
15
11
15
14
13
12
13
14
15
16
17
16
15
14
13
14
15
16
17
18
17
16
15
14
15
16
17
18
19
18
17
16
15
16
17
18
19
20
0
6
7
8
9
5
9
8
7
6
7
8
9
5
6
10
9
8
7
8
9
10
6
7
11
10
9
8
9
10
11
7
8
12
11
10
9
10
11
12
8
14
13
12
11
10
11
12
13
14
15
14
13
12
11
12
13
14
15
16
15
14
13
12
13
14
15
16
17
16
10
9
13
9
10
16
17
18
17
16
15
14
15
16
17
18
19
18
17
16
15
16
17
18
19
0
1
2
8
11
10
4
3
2
1
2
8
9
12
11
10
4
3
2
8
9
10
13
12
11
10
9
8
9
10
11
14
13
12
11
10
9
10
11
12
10
14
13
12
11
10
11
12
8
11
15
14
13
12
11
12
13
9
17
16
15
14
13
12
13
14
15
18
17
16
15
14
13
14
15
16
19
18
17
16
15
14
15
16
17
20
19
18
17
16
15
16
17
18
0
1
7
12
11
5
4
3
2
1
7
8
13
12
11
5
4
3
7
8
9
14
13
12
11
10
9
8
9
10
15
14
13
12
11
10
9
10
11
11
15
14
13
12
11
10
11
7
12
16
15
14
13
12
11
12
8
18
17
16
15
14
13
12
13
14
19
18
17
16
15
14
13
14
15
20
19
18
17
16
15
14
15
16
21
20
19
18
17
16
15
16
17
0
6
13
12
6
5
4
3
2
6
7
14
13
12
6
5
4
8
7
8
15
14
13
12
11
10
9
8
9
16
15
14
13
12
11
10
9
10
12
16
15
14
13
12
11
10
6
13
17
16
15
14
13
12
11
7
19
18
17
16
15
14
13
12
13
20
19
18
17
16
15
14
13
14
21
20
19
18
17
16
15
14
15
22
21
20
19
18
17
16
15
16
0
14
13
12
11
10
9
8
7
6
15
14
13
12
11
10
9
8
7
16
15
14
13
12
11
10
9
8
17
16
15
14
13
12
11
10
9
18
12
11
10
14
8
7
6
10
19
18
17
16
15
14
13
12
11
15
19
18
17
16
15
14
13
7
16
15
19
18
12
16
15
9
8
17
16
15
14
13
12
11
10
9
18
17
16
15
14
13
12
11
10
0
6
7
8
9
10
11
12
8
1
7
8
9
10
11
12
13
9
2
8
9
10
11
12
13
14
10
3
9
10
11
12
13
14
15
11
9
10
11
12
13
14
15
16
17
10
11
12
13
14
15
16
17
18
11
12
13
14
15
16
17
18
19
12
13
9
10
16
12
13
19
20
13
14
15
16
17
18
19
20
21
14
15
16
17
18
19
20
21
22
0
6
7
8
9
10
6
12
7
1
2
8
9
10
6
7
13
8
2
3
4
5
6
7
8
14
9
3
4
5
6
7
8
9
15
10
9
10
11
12
13
14
15
16
11
5
6
7
8
9
10
11
17
12
6
7
8
9
10
11
12
18
13
12
13
14
15
16
17
18
19
14
13
14
15
16
17
18
19
20
15
14
15
16
17
18
19
20
21
0
1
2
3
4
10
11
8
7
6
2
3
4
10
11
12
9
8
7
8
9
10
11
12
13
10
9
8
9
10
11
12
13
14
6
10
9
10
11
12
13
14
10
7
11
10
11
12
13
14
15
11
13
12
11
12
13
14
15
16
17
14
13
12
13
14
15
16
17
18
15
14
13
14
15
16
17
18
19
16
15
14
15
16
17
18
19
20
0
1
2
3
9
10
9
8
7
1
2
3
9
10
11
10
9
8
7
8
9
10
11
12
11
10
9
8
9
10
11
12
13
7
11
10
9
10
11
12
13
9
8
12
11
10
11
12
13
14
10
14
13
12
11
12
13
14
15
16
15
14
13
12
13
14
15
16
17
16
15
14
13
14
15
16
17
18
17
16
15
14
15
16
17
18
19
0
1
2
8
9
10
9
8
2
1
2
8
9
10
11
10
9
8
7
8
9
10
11
12
11
10
9
8
9
10
11
12
8
12
11
10
9
10
11
12
8
9
13
12
11
10
11
12
13
9
15
14
13
12
11
12
13
14
15
16
15
14
13
12
13
14
15
16
17
16
15
14
13
14
15
16
17
18
17
16
15
14
15
16
17
18
0
1
7
8
11
10
9
3
2
1
7
8
9
12
11
10
9
8
7
8
9
10
13
12
11
10
9
8
9
10
11
9
13
12
11
10
9
10
11
7
10
14
13
12
11
10
11
12
8
16
15
14
13
12
11
12
13
14
17
16
15
14
13
12
13
14
15
18
17
16
15
14
13
14
15
16
19
18
17
16
15
14
15
16
17
0
6
7
12
11
10
4
3
2
6
7
8
13
12
11
10
9
8
7
8
9
14
13
12
11
10
9
8
9
10
10
14
13
12
11
10
9
10
6
11
15
14
13
12
11
10
11
7
17
16
15
14
13
12
11
12
13
18
17
16
15
14
13
12
13
14
19
18
17
16
15
14
13
14
15
20
19
18
17
16
15
14
15
16
0
6
13
7
6
10
9
8
2
1
7
14
8
7
6
5
4
3
2
8
15
9
8
7
6
5
4
3
9
16
15
14
13
12
11
10
9
10
17
11
10
9
8
7
6
5
11
18
12
11
10
9
8
7
6
12
19
18
17
16
15
14
13
12
13
20
19
18
17
16
15
14
13
14
21
20
19
18
17
16
15
14
15
0
9
13
12
11
10
9
8
7
1
10
14
13
12
11
10
9
8
2
11
15
14
13
12
11
10
9
3
17
16
15
14
13
12
11
10
9
18
17
16
15
14
13
12
11
10
19
18
17
16
15
14
13
12
11
20
19
13
12
16
10
9
13
12
21
20
19
18
17
16
15
14
13
22
21
20
19
18
17
16
15
14
0
6
7
8
9
10
11
12
8
1
7
8
9
10
11
12
13
9
2
8
9
10
11
12
13
14
10
8
9
10
11
12
13
14
15
16
9
10
11
12
13
14
15
16
17
10
11
12
13
14
15
16
17
18
11
12
8
9
15
11
12
18
19
12
13
14
15
16
17
18
19
20
13
14
15
16
17
18
19
20
21
0
1
7
8
9
5
6
12
7
1
2
3
4
5
6
7
13
8
2
3
4
5
6
7
8
14
9
8
9
10
11
12
13
14
15
10
4
5
6
7
8
9
10
16
11
5
6
7
8
9
10
11
17
12
11
12
13
14
15
16
17
18
13
12
13
14
15
16
17
18
19
14
13
14
15
16
17
18
19
20
0
6
7
8
4
5
11
8
2
1
2
3
4
5
6
12
9
3
2
3
4
5
6
7
13
10
9
8
9
10
11
12
13
14
11
5
4
5
6
7
8
9
15
12
6
5
6
7
8
9
10
16
13
12
11
12
13
14
15
16
17
14
13
12
13
14
15
16
17
18
15
14
13
14
15
16
17
18
19
0
1
2
8
9
10
9
8
7
6
7
8
9
10
11
10
9
8
7
8
9
10
11
12
6
10
9
8
9
10
11
12
8
7
11
10
9
10
11
12
13
9
13
12
11
10
11
12
13
14
15
14
13
12
11
12
13
14
15
16
15
14
13
12
13
14
15
16
17
16
15
14
13
14
15
16
17
18
0
1
7
8
9
10
9
8
7
6
7
8
9
10
11
10
9
8
7
8
9
10
11
7
11
10
9
8
9
10
11
7
8
12
11
10
9
10
11
12
8
14
13
12
11
10
11
12
13
14
15
14
13
12
11
12
13
14
15
16
15
14
13
12
13
14
15
16
17
16
15
14
13
14
15
16
17
0
6
7
8
11
10
9
8
7
6
7
8
9
12
11
10
9
8
7
8
9
10
8
12
11
10
9
8
9
10
6
9
13
12
11
10
9
10
11
7
15
14
13
12
11
10
11
12
13
16
15
14
13
12
11
12
13
14
17
16
15
14
13
12
13
14
15
18
17
16
15
14
13
14
15
16
0
1
7
12
6
5
4
3
2
1
2
8
13
7
6
5
4
3
2
3
9
14
13
12
11
10
9
8
9
10
15
9
8
7
6
5
4
5
11
16
10
9
8
7
6
5
6
12
17
16
15
14
13
12
11
12
13
18
17
16
15
14
13
12
13
14
19
18
17
16
15
14
13
14
15
0
6
13
7
6
5
4
3
2
1
7
14
8
7
6
5
4
3
2
8
15
14
13
12
11
10
9
8
9
16
10
9
8
7
6
5
4
10
17
11
10
9
8
7
6
5
11
18
17
16
15
14
13
12
11
12
19
18
17
16
15
14
13
12
13
20
19
18
17
16
15
14
13
14
0
9
13
12
11
10
9
8
7
1
10
14
13
12
11
10
9
8
2
16
15
14
13
12
11
10
9
8
17
16
15
14
13
12
11
10
9
18
17
16
15
14
13
12
11
10
19
18
12
11
15
9
8
12
11
20
19
18
17
16
15
14
13
12
21
20
19
18
17
16
15
14
13
0
6
7
8
9
10
11
12
8
1
7
8
9
10
11
12
13
9
7
8
9
10
11
12
13
14
15
8
9
10
11
12
13
14
15
16
9
10
11
12
13
14
15
16
17
10
11
7
8
14
10
11
17
18
11
12
13
14
15
16
17
18
19
12
13
14
15
16
17
18
19
20
0
1
2
3
4
5
6
12
7
1
2
3
4
5
6
7
13
8
7
8
9
10
11
12
13
14
9
3
4
5
6
7
8
9
15
10
4
5
6
7
8
9
10
16
11
10
11
12
13
14
15
16
17
12
11
12
13
14
15
16
17
18
13
12
13
14
15
16
17
18
19
0
1
2
3
4
5
11
8
2
1
2
3
4
5
6
12
9
8
7
8
9
10
11
12
13
10
4
3
4
5
6
7
8
14
11
5
4
5
6
7
8
9
15
12
11
10
11
12
13
14
15
16
13
12
11
12
13
14
15
16
17
14
13
12
13
14
15
16
17
18
0
1
2
3
4
10
9
3
2
1
2
3
4
5
11
10
9
8
7
8
9
10
11
12
11
5
4
3
4
5
6
7
13
12
6
5
4
5
6
7
8
14
13
12
11
10
11
12
13
14
15
14
13
12
11
12
13
14
15
16
15
14
13
12
13
14
15
16
17
0
1
2
3
9
10
4
3
2
1
2
3
4
10
11
10
9
8
7
8
9
10
11
12
6
5
4
3
4
5
6
12
13
7
6
5
4
5
6
7
13
14
13
12
11
10
11
12
13
14
15
14
13
12
11
12
13
14
15
16
15
14
13
12
13
14
15
16
0
1
2
8
11
5
4
3
2
1
2
3
9
12
11
10
9
8
7
8
9
10
13
7
6
5
4
3
4
5
11
14
8
7
6
5
4
5
6
12
15
14
13
12
11
10
11
12
13
16
15
14
13
12
11
12
13
14
17
16
15
14
13
12
13
14
15
0
1
7
12
6
5
4
3
2
1
2
8
13
12
11
10
9
8
7
8
9
14
8
7
6
5
4
3
4
10
15
9
8
7
6
5
4
5
11
16
15
14
13
12
11
10
11
12
17
16
15
14
13
12
11
12
13
18
17
16
15
14
13
12
13
14
0
6
13
7
6
5
4
3
2
1
7
14
13
12
11
10
9
8
7
8
15
9
8
7
6
5
4
3
9
16
10
9
8
7
6
5
4
10
17
16
15
14
13
12
11
10
11
18
17
16
15
14
13
12
11
12
19
18
17
16
15
14
13
12
13
0
9
13
12
11
10
9
8
7
1
15
14
13
12
11
10
9
8
7
16
15
14
13
12
11
10
9
8
17
16
15
14
13
12
11
10
9
18
17
11
10
14
8
7
11
10
19
18
17
16
15
14
13
12
11
20
19
18
17
16
15
14
13
12
0
6
7
8
9
10
11
12
8
6
7
8
9
10
11
12
13
14
7
8
9
10
11
12
13
14
15
8
9
10
11
12
13
14
15
16
9
10
6
7
13
9
10
16
17
10
11
12
13
14
15
16
17
18
11
12
13
14
15
16
17
18
19
0
1
2
3
4
5
6
12
7
6
7
8
9
10
11
12
13
8
2
3
4
5
6
7
8
14
9
3
4
5
6
7
8
9
15
10
9
10
11
12
13
14
15
16
11
10
11
12
13
14
15
16
17
12
11
12
13
14
15
16
17
18
0
1
2
3
4
5
11
8
7
6
7
8
9
10
11
12
9
3
2
3
4
5
6
7
13
10
4
3
4
5
6
7
8
14
11
10
9
10
11
12
13
14
15
12
11
10
11
12
13
14
15
16
13
12
11
12
13
14
15
16
17
0
1
2
3
4
10
9
8
7
6
7
8
9
10
11
10
4
3
2
3
4
5
6
12
11
5
4
3
4
5
6
7
13
12
11
10
9
10
11
12
13
14
13
12
11
10
11
12
13
14
15
14
13
12
11
12
13
14
15
16
0
1
2
3
9
10
9
8
7
6
7
8
9
10
11
5
4
3
2
3
4
5
11
12
6
5
4
3
4
5
6
12
13
12
11
10
9
10
11
12
13
14
13
12
11
10
11
12
13
14
15
14
13
12
11
12
13
14
15
0
1
2
8
11
10
9
8
7
6
7
8
9
12
6
5
4
3
2
3
4
10
13
7
6
5
4
3
4
5
11
14
13
12
11
10
9
10
11
12
15
14
13
12
11
10
11
12
13
16
15
14
13
12
11
12
13
14
0
1
7
12
11
10
9
8
7
6
7
8
13
7
6
5
4
3
2
3
9
14
8
7
6
5
4
3
4
10
15
14
13
12
11
10
9
10
11
16
15
14
13
12
11
10
11
12
17
16
15
14
13
12
11
12
13
0
6
13
12
11
10
9
8
7
6
7
14
8
7
6
5
4
3
2
8
15
9
8
7
6
5
4
3
9
16
15
14
13
12
11
10
9
10
17
16
15
14
13
12
11
10
11
18
17
16
15
14
13
12
11
12
0
14
13
12
11
10
9
8
7
6
15
14
13
12
11
10
9
8
7
16
15
14
13
12
11
10
9
8
17
16
10
9
13
7
6
10
9
18
17
16
15
14
13
12
11
10
19
18
17
16
15
14
13
12
11
0
6
7
8
9
10
11
12
8
1
7
8
9
10
11
12
13
9
7
8
9
10
11
12
13
14
15
8
9
10
11
12
13
14
15
16
9
10
11
12
13
14
15
16
17
10
11
12
13
14
15
16
17
18
0
1
2
8
4
5
6
12
7
6
7
8
9
10
11
12
13
3
7
8
9
10
11
12
13
9
4
3
9
10
6
12
13
9
10
5
4
5
6
7
8
9
10
11
6
5
6
7
8
9
10
11
12
0
1
7
3
4
5
11
8
7
6
7
8
9
10
11
12
4
8
7
8
9
10
11
12
8
5
4
8
9
5
11
12
8
9
6
5
4
5
6
7
8
9
10
7
6
5
6
7
8
9
10
11
0
6
2
3
4
10
9
8
7
6
7
8
9
10
11
5
9
8
7
8
9
10
11
7
6
5
9
8
4
10
11
7
8
7
6
5
4
5
6
7
8
9
8
7
6
5
6
7
8
9
10
0
6
7
8
9
10
9
8
7
6
7
8
9
10
11
10
9
8
7
8
9
10
11
12
11
10
9
8
9
10
11
12
13
12
11
10
9
10
11
12
13
14
13
12
11
10
11
12
13
14
0
1
2
8
11
10
9
8
7
6
7
8
9
7
11
10
9
8
7
8
9
5
8
7
11
10
4
8
9
5
6
9
8
7
6
5
4
5
6
7
10
9
8
7
6
5
6
7
8
0
1
7
12
11
10
9
8
7
6
7
8
8
12
11
10
9
8
7
8
4
9
8
12
11
5
9
8
4
5
10
9
8
7
6
5
4
5
6
11
10
9
8
7
6
5
6
7
0
6
13
12
11
10
9
8
7
6
7
9
13
12
11
10
9
8
7
3
10
9
13
12
6
10
9
3
4
11
10
9
8
7
6
5
4
5
12
11
10
9
8
7
6
5
6
0
9
13
12
11
10
9
8
7
1
15
14
13
12
11
10
9
8
7
16
15
14
13
12
11
10
9
8
17
16
15
14
13
12
11
10
9
18
17
16
15
14
13
12
11
10
0
6
7
8
9
10
11
12
8
6
7
8
9
10
11
12
13
14
7
8
9
10
11
12
13
14
15
8
9
10
11
12
13
14
15
16
9
10
11
12
13
14
15
16
17
0
1
2
3
4
5
6
12
7
1
2
3
4
5
6
7
13
8
7
8
9
10
11
12
13
14
9
8
9
10
11
12
13
14
15
10
9
10
11
12
13
14
15
16
0
1
2
3
4
5
11
8
2
1
2
3
4
5
6
12
9
8
7
8
9
10
11
12
13
10
9
8
9
10
11
12
13
14
11
10
9
10
11
12
13
14
15
0
1
2
3
4
10
9
3
2
1
2
3
4
5
11
10
9
8
7
8
9
10
11
12
11
10
9
8
9
10
11
12
13
12
11
10
9
10
11
12
13
14
0
1
2
3
9
10
4
3
2
1
2
3
4
10
11
10
9
8
7
8
9
10
11
12
11
10
9
8
9
10
11
12
13
12
11
10
9
10
11
12
13
0
1
2
8
11
5
4
3
2
1
2
3
9
12
11
10
9
8
7
8
9
10
13
12
11
10
9
8
9
10
11
14
13
12
11
10
9
10
11
12
0
1
7
12
6
5
4
3
2
1
2
8
13
12
11
10
9
8
7
8
9
14
13
12
11
10
9
8
9
10
15
14
13
12
11
10
9
10
11
0
6
13
7
6
5
4
3
2
1
7
14
13
12
11
10
9
8
7
8
15
14
13
12
11
10
9
8
9
16
15
14
13
12
11
10
9
10
0
14
13
12
11
10
9
8
7
6
15
14
13
12
11
10
9
8
7
16
15
14
13
12
11
10
9
8
17
16
15
14
13
12
11
10
9
0
6
7
8
9
10
11
12
8
1
2
8
9
5
11
12
8
9
2
3
4
5
6
7
8
9
10
3
4
5
6
7
8
9
10
11
0
1
2
3
4
5
6
12
7
6
7
8
9
10
11
12
13
8
7
8
9
10
11
12
13
14
9
8
9
10
11
12
13
14
15
0
1
2
3
4
5
11
8
7
6
7
8
9
10
11
12
9
8
7
8
9
10
11
12
13
10
9
8
9
10
11
12
13
14
0
1
2
3
4
10
9
8
7
6
7
8
9
10
11
10
9
8
7
8
9
10
11
12
11
10
9
8
9
10
11
12
13
0
1
2
3
9
10
9
8
7
6
7
8
9
10
11
10
9
8
7
8
9
10
11
12
11
10
9
8
9
10
11
12
0
1
2
8
11
10
9
8
7
6
7
8
9
12
11
10
9
8
7
8
9
10
13
12
11
10
9
8
9
10
11
0
1
7
12
11
10
9
8
7
6
7
8
13
12
11
10
9
8
7
8
9
14
13
12
11
10
9
8
9
10
0
6
13
12
11
10
9
8
7
6
7
14
13
12
11
10
9
8
7
8
15
14
13
12
11
10
9
8
9
0
9
8
12
11
5
9
8
2
1
10
9
8
7
6
5
4
3
2
11
10
9
8
7
6
5
4
3
0
1
7
8
4
10
11
7
8
1
2
3
4
5
6
7
8
9
2
3
4
5
6
7
8
9
10
0
6
7
3
9
10
6
7
2
1
2
3
4
5
6
7
8
3
2
3
4
5
6
7
8
9
0
1
7
3
4
10
11
8
7
6
7
8
9
10
11
12
9
8
7
8
9
10
11
12
13
0
6
2
3
9
10
9
8
7
6
7
8
9
10
11
10
9
8
7
8
9
10
11
12
0
6
7
3
4
5
4
3
2
1
2
3
4
5
6
5
4
3
2
3
4
5
6
0
1
7
8
11
10
9
8
7
6
7
8
9
12
11
10
9
8
7
8
9
10
0
6
7
12
11
10
9
8
7
6
7
8
13
12
11
10
9
8
7
8
9
0
1
8
7
6
5
4
3
2
1
2
9
8
7
6
5
4
3
2
3
0
9
8
7
6
5
4
3
2
1
10
9
8
7
6
5
4
3
2
0
1
2
3
4
5
6
7
8
1
2
3
4
5
6
7
8
9
0
1
2
3
4
5
6
7
2
1
2
3
4
5
6
7
8
0
1
2
3
4
5
6
3
2
1
2
3
4
5
6
7
0
1
2
3
4
5
4
3
2
1
2
3
4
5
6
0
1
2
3
4
5
4
3
2
1
2
3
4
5
0
1
2
3
6
5
4
3
2
1
2
3
4
0
1
2
7
6
5
4
3
2
1
2
3
0
1
8
7
6
5
4
3
2
1
2
0
9
8
7
6
5
4
3
2
1
0
1
2
3
4
5
6
7
8
0
1
2
3
4
5
6
7
0
1
2
3
4
5
6
0
1
2
3
4
5
0
1
2
3
4
0
1
2
3
0
1
2
0
1
0